14374.0
883, 271, 946, 423, 721, 29, 852, 323, 20, 637, 242, 432, 767, 668, 926, 490, 169, 694, 583, 273, 757, 838, 157, 391, 758, 764, 292, 96, 268, 675, 307, 538, 498, 659, 546, 895, 909, 12, 842, 849, 986, 106, 265, 833, 574, 375, 562, 988, 921, 89, 475, 524, 597, 294, 211, 952, 147, 113, 302, 74, 938, 663, 204, 46, 724, 422, 959, 665, 505, 85, 855, 479, 584, 343, 164, 958, 739, 120, 163, 233, 472, 483, 851, 26, 1, 606, 567, 662, 607, 203, 64, 589, 384, 892